0_instance_selection/optil_deployment/lite/public/vc-lite_019.gr
p td 1490 2680
1 1391
1 260
1 340
1 489
1 496
1 604
1 737
1 774
1 802
1 929
1 1063
1 1106
1 1182
1 1220
1391 167
1391 621
1391 805
1391 906
1391 1263
1391 1323
2 1392
2 140
2 383
2 961
2 1070
1392 539
1392 544
1392 724
1392 1116
1392 1148
1392 1190
3 1393
3 117
3 813
3 911
3 1044
3 1236
3 1383
1393 139
1393 861
1393 865
1393 995
1393 1005
1393 1110
1393 1184
4 1394
4 179
4 650
4 952
4 1004
4 1139
4 1257
1394 395
1394 513
1394 540
1394 625
1394 745
1394 1158
5 1395
5 334
5 661
5 721
5 948
5 1084
5 1191
5 1249
5 1278
1395 203
1395 642
1395 812
1395 1189
6 1396
6 278
6 749
6 922
6 1001
6 1097
1396 246
1396 309
1396 476
1396 852
1396 1247
1396 1372
7 1397
7 1012
7 1114
1397 732
1397 854
8 1398
8 150
8 646
8 711
8 1156
8 1233
1398 916
1398 939
1398 1072
1398 1162
1398 1286
9 1399
9 272
9 328
9 758
9 862
9 1025
9 1252
1399 210
1399 400
1399 531
1399 567
1399 647
1399 795
1399 839
1399 1256
1399 1299
1399 1305
10 1400
10 388
10 968
10 983
10 1059
10 1376
1400 315
11 1401
11 151
11 158
11 168
11 378
11 808
11 869
11 1027
11 1083
11 1207
1401 170
1401 202
1401 307
1401 890
1401 957
12 1402
12 343
12 410
12 494
12 730
12 874
1402 607
1402 654
1402 844
1402 1145
1402 1297
1402 1334
13 1403
13 366
13 595
13 632
13 816
13 876
13 1122
13 1127
13 1360
1403 606
1403 619
1403 752
1403 1226
14 1404
14 153
14 317
14 486
14 620
14 682
14 743
14 811
14 931
14 994
1404 106
1404 416
1404 482
1404 492
1404 1141
15 1405
15 451
15 507
15 674
15 935
15 1040
15 1228
15 1262
15 1354
15 1367
1405 192
1405 232
1405 265
1405 514
1405 629
1405 779
1405 908
1405 940
1405 1136
16 1406
16 134
16 211
16 371
16 587
16 1298
1406 159
1406 380
1406 454
1406 660
1406 828
1406 1010
17 1407
17 376
17 481
17 502
17 590
17 720
17 820
17 924
17 1076
17 1111
17 1137
17 1147
17 1206
1407 487
1407 1176
18 1408
18 414
18 546
18 659
1408 124
1408 212
1408 310
1408 530
1408 609
1408 751
1408 783
1408 827
1408 903
1408 1371
19 1409
19 495
19 545
19 558
19 830
19 999
19 1056
19 1216
1409 252
1409 946
1409 1031
1409 1107
1409 1115
1409 1133
1409 1165
20 1410
20 126
20 594
20 778
20 1087
20 1196
20 1361
1410 109
1410 180
1410 200
1410 370
1410 372
1410 458
1410 784
1410 832
1410 937
21 1411
21 501
21 506
21 532
21 584
21 665
21 726
21 791
21 817
21 819
21 1168
21 1202
1411 419
1411 460
1411 536
1411 856
1411 930
1411 943
1411 1011
22 1412
22 353
22 401
22 690
22 696
22 738
22 744
22 793
22 901
22 938
22 1082
1412 130
1412 144
1412 325
1412 361
1412 390
1412 471
1412 516
1412 1131
1412 1362
23 1413
23 270
23 312
23 338
23 373
23 912
23 985
23 1050
1413 147
1413 172
1413 226
1413 305
1413 706
1413 773
1413 836
24 1414
24 184
24 818
24 942
24 951
24 979
24 1128
24 1200
1414 449
1414 573
1414 683
1414 1016
1414 1095
25 1415
25 472
25 493
25 1081
25 1265
1415 457
1415 465
1415 1232
1415 1312
26 1416
26 577
26 657
26 1030
26 1230
26 1241
1416 198
1416 254
1416 321
1416 365
1416 441
1416 746
1416 882
1416 958
1416 1014
27 1417
27 119
27 127
27 311
27 355
27 389
27 411
27 637
27 729
27 956
27 1091
27 1320
1417 551
1417 597
1417 662
1417 772
1417 921
28 1418
28 515
28 534
28 680
28 996
28 1172
28 1240
1418 116
1418 229
1418 524
29 1419
29 394
29 413
29 684
29 872
29 899
29 1013
29 1032
29 1223
1419 156
1419 497
1419 692
1419 960
1419 1214
30 1420
30 304
30 341
30 443
30 491
30 873
30 1129
1420 765
1420 1064
1420 1187
31 1421
31 160
31 446
31 505
31 670
31 695
31 891
31 1245
1421 108
1421 393
1421 807
1421 879
1421 1028
1421 1153
1421 1155
1421 1274
1421 1288
32 1422
32 118
32 248
32 538
32 687
32 1259
1422 221
1422 276
1422 574
1422 1380
33 1423
33 337
33 798
33 1018
33 1140
1423 122
1423 178
1423 259
1423 333
1423 369
1423 444
1423 618
1423 736
1423 1300
1423 1355
34 1424
34 149
34 302
34 335
34 568
34 578
34 624
34 762
34 1203
1424 282
1424 379
1424 468
1424 484
1424 529
1424 543
1424 1142
35 1425
35 790
35 1170
1425 385
1425 407
1425 440
1425 648
1425 742
1425 785
1425 1015
1425 1181
36 1426
36 208
36 255
36 678
36 703
36 918
36 944
36 1023
36 1047
36 1113
1426 112
1426 176
1426 374
1426 436
1426 601
1426 741
1426 998
1426 1057
37 1427
37 404
37 422
37 1119
37 1193
37 1271
1427 104
1427 166
1427 323
1427 427
1427 522
1427 570
1427 1126
38 1428
38 206
38 437
38 456
38 588
38 945
38 955
38 974
38 1282
38 1374
1428 131
1428 728
1428 847
1428 1366
39 1429
39 163
39 199
39 201
39 213
39 349
39 402
39 459
39 850
39 884
39 1146
39 1290
39 1370
1429 103
1429 177
1429 301
1429 420
1429 525
1429 814
40 1430
40 498
40 643
40 691
40 909
40 1117
40 1321
40 1352
1430 576
1430 950
1430 1100
1430 1208
1430 1215
1430 1284
1430 1294
1430 1335
41 1431
41 111
41 155
41 240
41 479
41 701
41 825
41 877
41 1008
41 1039
1431 234
1431 616
1431 641
1431 655
1431 928
42 1432
42 205
42 336
42 488
42 787
42 991
42 1042
1432 171
1432 191
1432 329
1432 399
1432 673
1432 782
1432 914
1432 966
1432 1264
1432 1306
43 1433
43 219
43 292
43 425
43 1164
43 1239
1433 162
1433 605
1433 653
1433 902
1433 941
1433 1105
44 1434
44 123
44 316
44 435
44 575
44 975
44 1199
44 1378
1434 1092
1434 1340
1434 1358
45 1435
45 303
45 589
45 1021
45 1238
45 1291
1435 521
1435 640
1435 959
1435 1295
46 1436
46 381
46 677
46 919
46 1384
1436 598
1436 656
1436 1046
1436 1086
1436 1342
1436 1385
47 1437
47 313
47 897
1437 125
1437 1317
1437 1368
48 1438
48 266
48 1387
48 1388
1438 105
1438 326
1438 448
1438 510
1438 1195
49 1439
49 146
49 247
49 432
49 560
49 1309
49 1345
1439 608
1439 900
1439 971
1439 1074
1439 1104
1439 1281
50 1440
50 452
50 669
50 769
50 870
50 1058
50 1080
50 1231
1440 288
1440 511
1440 564
1440 792
1440 1377
51 1441
51 251
51 541
51 699
51 1132
51 1244
51 1344
1441 591
1441 888
1441 1009
1441 1227
52 1442
52 731
52 799
52 1134
52 1326
1442 164
1442 964
1442 972
1442 1143
1442 1261
53 1443
53 216
53 227
53 297
53 339
53 377
53 508
53 810
53 898
53 1174
53 1235
1443 244
1443 279
1443 527
1443 806
1443 1209
54 1444
54 342
54 566
54 1308
1444 185
1444 712
1444 992
1444 1006
1444 1118
1444 1336
55 1445
55 228
55 526
55 548
55 707
55 831
55 1123
1445 603
1445 715
1445 913
1445 1096
1445 1178
1445 1307
1445 1327
56 1446
56 101
56 963
56 969
56 987
56 1077
56 1225
1446 347
1446 528
1446 709
1446 763
1446 953
57 1447
57 331
57 788
57 1201
57 1268
1447 188
1447 267
1447 294
1447 368
1447 500
1447 561
1447 681
1447 889
1447 1003
1447 1026
1447 1051
1447 1160
1447 1219
1447 1266
58 1448
58 651
58 823
58 1248
58 1330
1448 283
1448 319
1448 352
1448 509
1448 748
1448 1060
1448 1108
1448 1310
1448 1338
59 1449
59 102
59 141
59 367
59 579
59 801
59 932
59 936
59 962
59 1152
1449 143
1449 463
1449 477
1449 628
1449 1054
60 1450
60 296
60 512
60 858
60 926
60 986
60 1194
60 1242
1450 189
1450 455
1450 771
1450 866
1450 1314
61 1451
61 138
61 148
61 403
61 447
61 556
61 583
61 864
61 895
61 915
61 1043
61 1120
1451 467
1451 599
1451 636
1451 716
1451 875
1451 887
62 1452
62 664
62 984
62 1088
62 1311
1452 241
1452 789
1452 834
63 1453
63 250
63 262
63 483
63 519
63 761
63 1273
1453 293
1453 351
1453 1243
1453 1313
64 1454
64 586
64 593
64 722
64 1079
64 1302
64 1369
1454 174
1454 426
1454 445
1454 582
1454 717
1454 767
1454 840
1454 848
65 1455
65 499
65 626
65 679
65 698
65 733
65 1149
1455 239
1455 320
1455 356
1455 927
1455 954
1455 1094
66 1456
66 187
66 207
66 396
66 405
66 700
66 705
66 747
66 1075
66 1090
66 1277
66 1283
1456 245
1456 735
1456 780
1456 978
1456 1151
1456 1269
67 1457
67 285
67 357
67 466
67 611
67 990
67 1055
67 1150
67 1197
67 1211
67 1255
1457 169
1457 222
1457 350
1457 503
1457 557
1457 982
1457 1045
1457 1065
1457 1364
68 1458
68 261
68 645
68 1019
68 1041
68 1365
1458 364
1458 934
1458 1157
69 1459
69 218
69 406
69 634
69 846
69 1037
69 1121
69 1130
69 1250
69 1379
1459 113
1459 194
1459 327
1459 438
1459 766
1459 851
1459 1066
1459 1112
1459 1166
70 1460
70 157
70 161
70 249
70 277
70 550
70 668
70 685
70 1382
1460 580
1460 638
1460 837
1460 871
1460 1253
1460 1292
1460 1332
1460 1386
71 1461
71 133
71 299
71 417
71 428
71 554
71 633
71 686
71 739
71 803
71 1237
71 1272
1461 142
1461 719
1461 973
72 1462
72 110
72 263
72 362
72 475
72 517
72 949
1462 197
1462 214
1462 434
1462 504
1462 757
1462 764
1462 981
73 1463
73 204
73 348
73 523
73 781
73 786
73 1186
73 1267
73 1328
1463 520
1463 881
1463 1024
1463 1275
74 1464
74 223
74 322
74 375
74 600
74 639
74 649
74 1258
74 1301
1464 1048
1464 1109
1464 1337
1464 1389
75 1465
75 268
75 415
75 462
75 518
1465 559
1465 777
1465 1169
1465 1185
1465 1213
1465 1341
76 1466
76 281
76 418
76 430
76 555
76 1067
76 1218
76 1304
76 1350
1466 215
1466 287
1466 295
1466 470
1466 592
1466 630
1466 702
1466 845
1466 933
1466 965
1466 1289
77 1467
77 242
77 290
77 666
77 804
77 1038
77 1089
77 1210
77 1333
1467 196
1467 286
1467 386
1467 617
1467 760
1467 842
1467 1103
1467 1135
1467 1324
78 1468
78 225
78 409
78 667
78 697
78 710
78 1179
78 1315
1468 359
1468 535
1468 610
1468 775
1468 822
1468 1035
1468 1098
1468 1254
79 1469
79 264
79 324
79 453
79 602
79 1161
79 1171
1469 236
1469 421
1469 537
1469 689
80 1470
80 107
80 271
80 289
80 391
80 439
80 947
80 1002
80 1022
80 1325
80 1390
1470 768
1470 833
81 1471
81 581
81 796
81 997
81 1180
1471 120
1471 128
1471 552
1471 563
1471 627
1471 826
1471 1062
1471 1078
1471 1192
1471 1198
82 1472
82 461
82 571
1472 183
1472 230
1472 553
1472 652
1472 672
1472 676
1472 910
1472 923
1472 1101
1472 1234
83 1473
83 237
83 631
83 704
83 759
83 860
83 867
83 925
83 1029
83 1296
83 1375
1473 190
1473 431
1473 794
1473 1270
1473 1346
84 1474
84 220
84 614
84 967
84 1229
1474 115
1474 209
1474 613
1474 714
1474 756
1474 815
1474 920
1474 1329
1474 1331
1474 1347
1474 1357
1474 1373
85 1475
85 257
85 344
85 485
85 596
85 675
85 694
85 1188
1475 387
1475 469
1475 821
1475 1154
86 1476
86 330
86 658
86 713
86 977
86 1093
1476 231
1476 384
1476 841
1476 878
1476 894
1476 905
1476 1167
87 1477
87 256
87 358
87 363
87 424
87 542
87 886
87 1319
87 1349
87 1359
1477 622
1477 693
1477 734
1477 849
1477 1069
1477 1246
1477 1293
88 1478
88 346
88 473
88 480
88 1068
88 1183
1478 152
1478 233
1478 688
1478 893
89 1479
89 135
89 1222
1479 308
1479 345
1479 490
1479 623
1479 857
1479 1163
1479 1205
1479 1280
90 1480
90 173
90 181
90 360
90 450
90 547
90 776
90 835
90 1049
90 1124
90 1322
1480 193
1480 269
1480 291
1480 423
1480 644
1480 809
1480 1017
1480 1102
1480 1212
1480 1221
91 1481
91 318
91 392
91 585
91 829
91 859
91 885
91 1036
1481 238
1481 478
1481 533
1481 740
1481 753
1481 868
1481 1071
1481 1316
1481 1351
92 1482
92 114
92 195
92 224
92 382
92 612
92 993
92 1251
1482 186
1482 562
1482 615
1482 671
1482 970
1482 976
1482 1061
1482 1381
93 1483
93 354
93 1007
93 1034
1483 569
1483 708
1483 1356
94 1484
94 273
94 838
94 843
94 883
94 1000
94 1303
1484 121
1484 182
1484 565
1484 853
1484 855
1484 989
1484 1073
1484 1125
1484 1144
1484 1260
95 1485
95 235
95 314
95 397
95 412
95 727
95 797
95 1175
1485 284
1485 442
1485 572
1485 904
1485 1279
96 1486
96 165
96 217
96 280
96 718
96 725
96 754
96 800
96 1052
1486 136
1486 145
1486 175
1486 298
1486 300
1486 433
1486 474
1486 663
1486 770
1486 907
1486 1343
97 1487
97 137
97 253
97 306
97 398
97 723
97 1204
1487 129
1487 132
1487 549
1487 1348
98 1488
98 755
98 863
98 880
98 1053
98 1085
98 1177
98 1318
1488 896
1488 1033
1488 1217
1488 1224
1488 1363
99 1489
99 154
99 258
99 429
99 892
99 1020
99 1287
1489 275
1489 332
1489 635
1489 980
1489 1159
1489 1285
100 1490
100 243
100 274
100 408
100 464
100 824
100 1099
100 1138
100 1353
1490 750
1490 917
1490 988
1490 1173
1490 1276
1490 1339
101 102
101 103
102 103
104 105
104 106
105 106
107 108
107 109
108 109
110 111
110 112
111 112
113 114
113 115
114 115
116 117
116 118
117 118
119 120
119 121
120 121
122 123
122 124
123 124
125 126
125 127
126 127
128 129
128 130
129 130
131 132
131 133
132 133
134 135
134 136
135 136
137 138
137 139
138 139
140 141
140 142
141 142
143 144
143 145
144 145
146 147
146 148
147 148
149 150
149 151
150 151
152 153
152 154
153 154
155 156
155 157
156 157
158 159
158 160
159 160
161 162
161 163
162 163
164 165
164 166
165 166
167 168
167 169
168 169
170 171
170 172
171 172
173 174
173 175
174 175
176 177
176 178
177 178
179 180
179 181
180 181
182 183
182 184
183 184
185 186
185 187
186 187
188 189
188 190
189 190
191 192
191 193
192 193
194 195
194 196
195 196
197 198
197 199
198 199
200 201
200 202
201 202
203 204
203 205
204 205
206 207
206 208
207 208
209 210
209 211
210 211
212 213
212 214
213 214
215 216
215 217
216 217
218 219
218 220
219 220
221 222
221 223
222 223
224 225
224 226
225 226
227 228
227 229
228 229
230 231
230 232
231 232
233 234
233 235
234 235
236 237
236 238
237 238
239 240
239 241
240 241
242 243
242 244
243 244
245 246
245 247
246 247
248 249
248 250
249 250
251 252
251 253
252 253
254 255
254 256
255 256
257 258
257 259
258 259
260 261
260 262
261 262
263 264
263 265
264 265
266 267
266 268
267 268
269 270
269 271
270 271
272 273
272 274
273 274
275 276
275 277
276 277
278 279
278 280
279 280
281 282
281 283
282 283
284 285
284 286
285 286
287 288
287 289
288 289
290 291
290 292
291 292
293 294
293 295
294 295
296 297
296 298
297 298
299 300
299 301
300 301
302 303
302 304
303 304
305 306
305 307
306 307
308 309
308 310
309 310
311 312
311 313
312 313
314 315
314 316
315 316
317 318
317 319
318 319
320 321
320 322
321 322
323 324
323 325
324 325
326 327
326 328
327 328
329 330
329 331
330 331
332 333
332 334
333 334
335 336
335 337
336 337
338 339
338 340
339 340
341 342
341 343
342 343
344 345
344 346
345 346
347 348
347 349
348 349
350 351
350 352
351 352
353 354
353 355
354 355
356 357
356 358
357 358
359 360
359 361
360 361
362 363
362 364
363 364
365 366
365 367
366 367
368 369
368 370
369 370
371 372
371 373
372 373
374 375
374 376
375 376
377 378
377 379
378 379
380 381
380 382
381 382
383 384
383 385
384 385
386 387
386 388
387 388
389 390
389 391
390 391
392 393
392 394
393 394
395 396
395 397
396 397
398 399
398 400
399 400
401 402
401 403
402 403
404 405
404 406
405 406
407 408
407 409
408 409
410 411
410 412
411 412
413 414
413 415
414 415
416 417
416 418
417 418
419 420
419 421
420 421
422 423
422 424
423 424
425 426
425 427
426 427
428 429
428 430
429 430
431 432
431 433
432 433
434 435
434 436
435 436
437 438
437 439
438 439
440 441
440 442
441 442
443 444
443 445
444 445
446 447
446 448
447 448
449 450
449 451
450 451
452 453
452 454
453 454
455 456
455 457
456 457
458 459
458 460
459 460
461 462
461 463
462 463
464 465
464 466
465 466
467 468
467 469
468 469
470 471
470 472
471 472
473 474
473 475
474 475
476 477
476 478
477 478
479 480
479 481
480 481
482 483
482 484
483 484
485 486
485 487
486 487
488 489
488 490
489 490
491 492
491 493
492 493
494 495
494 496
495 496
497 498
497 499
498 499
500 501
500 502
501 502
503 504
503 505
504 505
506 507
506 508
507 508
509 510
509 511
510 511
512 513
512 514
513 514
515 516
515 517
516 517
518 519
518 520
519 520
521 522
521 523
522 523
524 525
524 526
525 526
527 528
527 529
528 529
530 531
530 532
531 532
533 534
533 535
534 535
536 537
536 538
537 538
539 540
539 541
540 541
542 543
542 544
543 544
545 546
545 547
546 547
548 549
548 550
549 550
551 552
551 553
552 553
554 555
554 556
555 556
557 558
557 559
558 559
560 561
560 562
561 562
563 564
563 565
564 565
566 567
566 568
567 568
569 570
569 571
570 571
572 573
572 574
573 574
575 576
575 577
576 577
578 579
578 580
579 580
581 582
581 583
582 583
584 585
584 586
585 586
587 588
587 589
588 589
590 591
590 592
591 592
593 594
593 595
594 595
596 597
596 598
597 598
599 600
599 601
600 601
602 603
602 604
603 604
605 606
605 607
606 607
608 609
608 610
609 610
611 612
611 613
612 613
614 615
614 616
615 616
617 618
617 619
618 619
620 621
620 622
621 622
623 624
623 625
624 625
626 627
626 628
627 628
629 630
629 631
630 631
632 633
632 634
633 634
635 636
635 637
636 637
638 639
638 640
639 640
641 642
641 643
642 643
644 645
644 646
645 646
647 648
647 649
648 649
650 651
650 652
651 652
653 654
653 655
654 655
656 657
656 658
657 658
659 660
659 661
660 661
662 663
662 664
663 664
665 666
665 667
666 667
668 669
668 670
669 670
671 672
671 673
672 673
674 675
674 676
675 676
677 678
677 679
678 679
680 681
680 682
681 682
683 684
683 685
684 685
686 687
686 688
687 688
689 690
689 691
690 691
692 693
692 694
693 694
695 696
695 697
696 697
698 699
698 700
699 700
701 702
701 703
702 703
704 705
704 706
705 706
707 708
707 709
708 709
710 711
710 712
711 712
713 714
713 715
714 715
716 717
716 718
717 718
719 720
719 721
720 721
722 723
722 724
723 724
725 726
725 727
726 727
728 729
728 730
729 730
731 732
731 733
732 733
734 735
734 736
735 736
737 738
737 739
738 739
740 741
740 742
741 742
743 744
743 745
744 745
746 747
746 748
747 748
749 750
749 751
750 751
752 753
752 754
753 754
755 756
755 757
756 757
758 759
758 760
759 760
761 762
761 763
762 763
764 765
764 766
765 766
767 768
767 769
768 769
770 771
770 772
771 772
773 774
773 775
774 775
776 777
776 778
777 778
779 780
779 781
780 781
782 783
782 784
783 784
785 786
785 787
786 787
788 789
788 790
789 790
791 792
791 793
792 793
794 795
794 796
795 796
797 798
797 799
798 799
800 801
800 802
801 802
803 804
803 805
804 805
806 807
806 808
807 808
809 810
809 811
810 811
812 813
812 814
813 814
815 816
815 817
816 817
818 819
818 820
819 820
821 822
821 823
822 823
824 825
824 826
825 826
827 828
827 829
828 829
830 831
830 832
831 832
833 834
833 835
834 835
836 837
836 838
837 838
839 840
839 841
840 841
842 843
842 844
843 844
845 846
845 847
846 847
848 849
848 850
849 850
851 852
851 853
852 853
854 855
854 856
855 856
857 858
857 859
858 859
860 861
860 862
861 862
863 864
863 865
864 865
866 867
866 868
867 868
869 870
869 871
870 871
872 873
872 874
873 874
875 876
875 877
876 877
878 879
878 880
879 880
881 882
881 883
882 883
884 885
884 886
885 886
887 888
887 889
888 889
890 891
890 892
891 892
893 894
893 895
894 895
896 897
896 898
897 898
899 900
899 901
900 901
902 903
902 904
903 904
905 906
905 907
906 907
908 909
908 910
909 910
911 912
911 913
912 913
914 915
914 916
915 916
917 918
917 919
918 919
920 921
920 922
921 922
923 924
923 925
924 925
926 927
926 928
927 928
929 930
929 931
930 931
932 933
932 934
933 934
935 936
935 937
936 937
938 939
938 940
939 940
941 942
941 943
942 943
944 945
944 946
945 946
947 948
947 949
948 949
950 951
950 952
951 952
953 954
953 955
954 955
956 957
956 958
957 958
959 960
959 961
960 961
962 963
962 964
963 964
965 966
965 967
966 967
968 969
968 970
969 970
971 972
971 973
972 973
974 975
974 976
975 976
977 978
977 979
978 979
980 981
980 982
981 982
983 984
983 985
984 985
986 987
986 988
987 988
989 990
989 991
990 991
992 993
992 994
993 994
995 996
995 997
996 997
998 999
998 1000
999 1000
1001 1002
1001 1003
1002 1003
1004 1005
1004 1006
1005 1006
1007 1008
1007 1009
1008 1009
1010 1011
1010 1012
1011 1012
1013 1014
1013 1015
1014 1015
1016 1017
1016 1018
1017 1018
1019 1020
1019 1021
1020 1021
1022 1023
1022 1024
1023 1024
1025 1026
1025 1027
1026 1027
1028 1029
1028 1030
1029 1030
1031 1032
1031 1033
1032 1033
1034 1035
1034 1036
1035 1036
1037 1038
1037 1039
1038 1039
1040 1041
1040 1042
1041 1042
1043 1044
1043 1045
1044 1045
1046 1047
1046 1048
1047 1048
1049 1050
1049 1051
1050 1051
1052 1053
1052 1054
1053 1054
1055 1056
1055 1057
1056 1057
1058 1059
1058 1060
1059 1060
1061 1062
1061 1063
1062 1063
1064 1065
1064 1066
1065 1066
1067 1068
1067 1069
1068 1069
1070 1071
1070 1072
1071 1072
1073 1074
1073 1075
1074 1075
1076 1077
1076 1078
1077 1078
1079 1080
1079 1081
1080 1081
1082 1083
1082 1084
1083 1084
1085 1086
1085 1087
1086 1087
1088 1089
1088 1090
1089 1090
1091 1092
1091 1093
1092 1093
1094 1095
1094 1096
1095 1096
1097 1098
1097 1099
1098 1099
1100 1101
1100 1102
1101 1102
1103 1104
1103 1105
1104 1105
1106 1107
1106 1108
1107 1108
1109 1110
1109 1111
1110 1111
1112 1113
1112 1114
1113 1114
1115 1116
1115 1117
1116 1117
1118 1119
1118 1120
1119 1120
1121 1122
1121 1123
1122 1123
1124 1125
1124 1126
1125 1126
1127 1128
1127 1129
1128 1129
1130 1131
1130 1132
1131 1132
1133 1134
1133 1135
1134 1135
1136 1137
1136 1138
1137 1138
1139 1140
1139 1141
1140 1141
1142 1143
1142 1144
1143 1144
1145 1146
1145 1147
1146 1147
1148 1149
1148 1150
1149 1150
1151 1152
1151 1153
1152 1153
1154 1155
1154 1156
1155 1156
1157 1158
1157 1159
1158 1159
1160 1161
1160 1162
1161 1162
1163 1164
1163 1165
1164 1165
1166 1167
1166 1168
1167 1168
1169 1170
1169 1171
1170 1171
1172 1173
1172 1174
1173 1174
1175 1176
1175 1177
1176 1177
1178 1179
1178 1180
1179 1180
1181 1182
1181 1183
1182 1183
1184 1185
1184 1186
1185 1186
1187 1188
1187 1189
1188 1189
1190 1191
1190 1192
1191 1192
1193 1194
1193 1195
1194 1195
1196 1197
1196 1198
1197 1198
1199 1200
1199 1201
1200 1201
1202 1203
1202 1204
1203 1204
1205 1206
1205 1207
1206 1207
1208 1209
1208 1210
1209 1210
1211 1212
1211 1213
1212 1213
1214 1215
1214 1216
1215 1216
1217 1218
1217 1219
1218 1219
1220 1221
1220 1222
1221 1222
1223 1224
1223 1225
1224 1225
1226 1227
1226 1228
1227 1228
1229 1230
1229 1231
1230 1231
1232 1233
1232 1234
1233 1234
1235 1236
1235 1237
1236 1237
1238 1239
1238 1240
1239 1240
1241 1242
1241 1243
1242 1243
1244 1245
1244 1246
1245 1246
1247 1248
1247 1249
1248 1249
1250 1251
1250 1252
1251 1252
1253 1254
1253 1255
1254 1255
1256 1257
1256 1258
1257 1258
1259 1260
1259 1261
1260 1261
1262 1263
1262 1264
1263 1264
1265 1266
1265 1267
1266 1267
1268 1269
1268 1270
1269 1270
1271 1272
1271 1273
1272 1273
1274 1275
1274 1276
1275 1276
1277 1278
1277 1279
1278 1279
1280 1281
1280 1282
1281 1282
1283 1284
1283 1285
1284 1285
1286 1287
1286 1288
1287 1288
1289 1290
1289 1291
1290 1291
1292 1293
1292 1294
1293 1294
1295 1296
1295 1297
1296 1297
1298 1299
1298 1300
1299 1300
1301 1302
1301 1303
1302 1303
1304 1305
1304 1306
1305 1306
1307 1308
1307 1309
1308 1309
1310 1311
1310 1312
1311 1312
1313 1314
1313 1315
1314 1315
1316 1317
1316 1318
1317 1318
1319 1320
1319 1321
1320 1321
1322 1323
1322 1324
1323 1324
1325 1326
1325 1327
1326 1327
1328 1329
1328 1330
1329 1330
1331 1332
1331 1333
1332 1333
1334 1335
1334 1336
1335 1336
1337 1338
1337 1339
1338 1339
1340 1341
1340 1342
1341 1342
1343 1344
1343 1345
1344 1345
1346 1347
1346 1348
1347 1348
1349 1350
1349 1351
1350 1351
1352 1353
1352 1354
1353 1354
1355 1356
1355 1357
1356 1357
1358 1359
1358 1360
1359 1360
1361 1362
1361 1363
1362 1363
1364 1365
1364 1366
1365 1366
1367 1368
1367 1369
1368 1369
1370 1371
1370 1372
1371 1372
1373 1374
1373 1375
1374 1375
1376 1377
1376 1378
1377 1378
1379 1380
1379 1381
1380 1381
1382 1383
1382 1384
1383 1384
1385 1386
1385 1387
1386 1387
1388 1389
1388 1390
1389 1390
