0_instance_selection/optil_deployment/lite/optil/public/vc-lite_019.out
s vc 1490 960
1
3
4
7
9
10
11
13
14
15
17
19
20
21
23
24
25
27
28
29
34
35
36
38
39
40
41
43
44
47
50
51
52
54
55
56
59
60
61
63
66
71
72
73
74
75
78
80
88
93
95
97
98
99
100
102
103
104
106
108
109
110
112
113
114
116
118
119
120
122
124
125
126
128
129
131
132
134
135
137
139
140
142
143
144
146
147
149
150
152
154
156
157
159
160
161
162
164
165
167
169
170
172
173
175
176
177
180
181
182
184
185
187
189
190
192
193
194
195
197
199
200
202
203
205
207
208
210
211
213
214
216
217
218
220
221
222
224
226
227
229
231
232
233
234
236
237
239
241
242
244
245
247
248
249
252
253
255
256
257
258
261
262
264
265
266
268
269
271
273
274
275
277
278
280
281
282
284
285
287
288
290
292
293
295
297
298
300
301
303
304
305
307
308
309
312
313
315
316
318
319
321
322
323
324
327
328
330
331
332
334
336
337
338
339
341
343
344
346
347
349
350
351
353
354
357
358
359
360
363
364
366
367
368
370
371
372
374
375
377
379
381
382
383
385
386
387
389
390
392
394
395
396
399
400
401
402
404
406
407
408
410
411
414
415
416
418
419
420
422
424
425
426
429
430
431
432
434
436
437
438
440
442
443
445
446
447
449
450
453
454
455
457
458
460
461
463
465
466
467
468
470
471
474
475
476
477
479
480
482
484
485
487
488
489
491
492
494
496
497
499
500
501
504
505
507
508
509
511
513
514
516
517
519
520
521
522
524
525
528
529
530
531
533
535
536
538
539
540
542
543
546
547
549
550
551
552
554
555
557
559
560
562
564
565
566
567
569
571
572
573
576
577
578
579
581
583
585
586
587
589
591
592
593
594
596
597
599
601
602
603
605
606
608
610
611
612
614
616
617
619
620
621
624
625
626
628
629
631
632
634
635
636
638
640
641
643
645
646
647
648
651
652
653
655
657
658
659
661
662
664
665
666
668
670
671
673
675
676
677
679
681
682
683
685
687
688
690
691
692
694
695
696
698
700
702
703
704
706
708
709
711
712
713
715
716
718
719
721
722
724
725
726
728
730
732
733
734
735
737
738
741
742
744
745
747
748
749
750
752
754
756
757
759
760
761
763
764
765
768
769
771
772
773
775
776
777
779
780
782
784
785
787
788
789
792
793
795
796
798
799
800
802
804
805
806
807
809
810
812
814
816
817
818
819
822
823
824
826
827
829
831
832
833
835
836
838
839
840
842
843
846
847
848
849
851
852
854
856
858
859
860
861
863
865
866
867
869
871
873
874
875
876
878
880
881
883
885
886
887
888
890
891
893
894
896
898
900
901
902
904
906
907
908
910
912
913
914
916
917
919
921
922
923
925
927
928
929
930
932
934
936
937
938
940
941
943
944
946
947
948
950
952
953
954
956
957
960
961
963
964
965
967
969
970
972
973
974
976
977
978
980
981
984
985
987
988
990
991
992
993
995
997
998
1000
1001
1003
1005
1006
1007
1009
1010
1011
1013
1015
1016
1018
1019
1021
1023
1024
1025
1027
1029
1030
1031
1033
1035
1036
1037
1038
1041
1042
1043
1045
1046
1048
1049
1050
1052
1054
1055
1057
1058
1060
1061
1062
1064
1065
1067
1069
1070
1071
1073
1074
1077
1078
1079
1081
1082
1084
1085
1087
1088
1089
1092
1093
1095
1096
1097
1098
1100
1102
1104
1105
1106
1107
1109
1110
1112
1113
1115
1117
1118
1119
1121
1122
1124
1126
1128
1129
1130
1131
1133
1134
1136
1138
1140
1141
1142
1143
1145
1146
1149
1150
1151
1152
1155
1156
1158
1159
1160
1161
1164
1165
1167
1168
1169
1171
1173
1174
1176
1177
1178
1180
1181
1182
1184
1185
1187
1188
1190
1191
1193
1195
1196
1197
1199
1201
1202
1203
1205
1207
1208
1210
1211
1213
1214
1215
1217
1218
1221
1222
1223
1224
1226
1227
1229
1230
1232
1233
1235
1236
1238
1239
1241
1243
1245
1246
1248
1249
1250
1251
1254
1255
1256
1257
1259
1261
1263
1264
1266
1267
1268
1269
1271
1273
1275
1276
1278
1279
1281
1282
1284
1285
1287
1288
1290
1291
1292
1294
1296
1297
1298
1299
1302
1303
1304
1305
1307
1309
1311
1312
1313
1314
1316
1317
1319
1320
1322
1323
1326
1327
1329
1330
1331
1333
1335
1336
1337
1339
1340
1341
1343
1345
1346
1348
1349
1350
1352
1354
1356
1357
1358
1359
1361
1363
1365
1366
1368
1369
1370
1372
1373
1375
1377
1378
1379
1380
1382
1384
1385
1387
1388
1389
1392
1395
1396
1398
1402
1406
1408
1412
1416
1420
1421
1422
1423
1427
1432
1435
1436
1438
1439
1443
1447
1448
1452
1454
1455
1457
1458
1459
1460
1466
1467
1469
1471
1472
1473
1474
1475
1476
1477
1479
1480
1481
1482
1484
1486
